20 1000
8 8 3 4 5 8 13 17 18 20
50 5 2 3 11 17 18
74 10 1 2 3 4 7 10 13 15 17 20
59 12 1 3 4 5 6 8 9 10 11 14 19 20
31 11 2 3 4 6 7 8 9 10 16 17 20
73 11 1 2 4 5 10 11 12 14 15 16 17
45 11 1 2 3 4 5 7 9 10 15 17 18
79 10 3 4 5 10 12 13 14 15 17 20
24 9 3 4 5 7 16 17 18 19 20
10 12 3 4 5 6 7 10 13 14 15 17 19 20
41 11 2 3 4 6 8 10 12 14 15 17 20
66 8 2 4 7 10 14 16 18 19
93 7 1 7 14 15 16 18 19
43 8 3 4 7 10 12 13 15 18
88 13 5 6 7 8 10 11 13 14 16 17 18 19 20
4 8 1 3 4 6 14 15 19 20
28 7 1 5 12 13 15 17 18
30 10 2 5 7 9 10 11 13 18 19 20
41 4 4 7 18 19
13 8 1 2 3 4 8 13 14 16
4 12 2 3 4 5 8 11 12 13 14 15 17 20
70 14 1 2 3 4 5 6 7 8 9 10 11 12 16 17
10 11 1 2 4 6 7 9 10 12 15 17 20
58 8 3 4 10 11 12 16 17 20
61 6 1 3 4 7 13 20
34 7 8 9 10 11 14 15 16
100 9 3 4 5 8 10 11 12 18 19
79 14 1 4 6 7 8 10 11 12 14 15 16 17 18 20
17 10 3 6 7 8 12 15 16 17 19 20
36 9 1 3 10 11 13 16 18 19 20
98 13 1 2 3 4 5 6 8 13 15 16 17 19 20
27 11 1 5 6 7 9 10 11 15 17 18 20
13 12 1 2 4 5 6 7 8 10 13 15 19 20
68 8 2 4 5 7 11 15 19 20
11 10 3 6 7 8 9 10 12 13 15 20
34 9 3 4 5 12 14 15 16 17 19
80 11 1 2 4 6 9 10 12 13 14 15 17
50 10 4 6 7 8 12 13 14 17 18 20
80 11 1 3 4 7 8 11 13 15 16 19 20
22 8 2 4 7 11 14 15 17 18
68 6 6 11 12 13 18 20
73 10 1 2 4 7 8 10 12 13 15 17
94 9 4 5 8 10 13 15 16 17 18
37 8 1 3 4 5 6 7 9 20
86 10 1 5 7 8 10 12 13 14 18 20
46 8 1 2 4 5 7 16 17 20
29 12 2 4 5 6 7 9 10 11 12 16 18 20
92 11 1 2 4 6 8 9 13 14 15 19 20
95 8 5 11 12 14 15 17 19 20
58 7 1 2 3 9 13 14 16
2 12 1 3 4 7 8 9 11 13 14 17 19 20
54 13 2 4 6 7 8 9 10 12 13 15 16 17 19
9 7 2 5 6 7 8 10 20
45 6 1 3 5 6 14 16
69 15 1 3 4 5 6 7 8 9 11 12 14 15 16 18 19
91 8 3 5 10 12 15 17 18 20
25 10 1 2 3 4 12 14 16 17 18 20
97 12 2 3 5 8 11 12 14 15 17 18 19 20
31 5 4 6 7 9 13
4 14 3 5 6 7 8 9 10 12 13 14 15 16 18 20
23 12 1 2 3 4 6 9 13 15 16 17 18 20
67 14 1 2 4 5 7 8 10 11 12 13 14 15 16 19
50 13 2 5 6 7 8 9 10 11 12 15 16 18 20
25 9 2 3 8 9 13 15 16 17 20
2 11 2 3 4 5 6 11 12 13 15 16 19
54 9 3 5 8 9 10 11 16 17 18
78 5 4 9 16 18 19
9 13 1 2 3 4 5 8 10 11 13 14 17 19 20
29 8 3 4 6 7 11 13 15 17
34 7 3 4 7 10 12 14 16
99 14 1 3 4 6 8 9 10 11 12 13 14 15 17 18
82 9 1 2 5 7 10 11 13 15 20
36 12 1 3 4 7 8 10 11 13 14 17 18 19
14 10 2 6 7 9 11 12 14 15 19 20
66 10 1 2 3 4 6 7 11 12 13 17
15 6 1 3 7 10 16 20
64 10 2 5 6 7 13 14 15 16 17 18
37 11 3 4 6 7 8 9 10 14 17 19 20
26 12 1 2 5 6 8 11 13 14 16 17 18 19
70 10 3 4 5 7 8 11 13 14 15 16
16 9 1 5 8 10 15 16 17 19 20
95 6 1 5 6 11 14 17
30 10 1 3 6 7 9 12 14 16 17 20
2 7 1 3 10 12 13 14 18
18 9 3 4 5 6 11 14 15 17 19
96 6 4 6 7 8 9 18
6 9 5 6 8 9 10 11 12 13 14
5 10 3 4 5 7 9 10 13 15 17 18
52 9 1 3 4 5 8 12 16 18 20
99 12 1 2 3 4 10 11 12 14 16 17 18 20
89 7 1 5 7 9 14 16 17
24 9 1 2 6 8 13 14 15 16 18
6 10 1 2 5 8 9 12 13 15 18 20
83 6 2 3 12 14 17 18
53 10 1 5 6 7 10 13 14 17 18 20
67 11 4 5 6 7 9 11 13 16 17 19 20
17 9 4 7 8 10 11 13 14 15 20
38 13 1 2 4 6 7 8 10 11 12 16 18 19 20
39 11 1 3 4 5 6 7 8 12 13 14 20
45 9 2 7 8 11 13 15 16 17 20
2 16 2 3 5 6 7 9 10 11 12 13 15 16 17 18 19 20
98 13 2 5 7 8 9 12 14 15 16 17 18 19 20
72 8 2 4 5 8 10 11 12 19
29 12 1 3 4 5 7 8 10 11 14 16 19 20
38 10 1 4 8 9 10 12 15 16 19 20
59 11 1 2 3 5 7 8 11 13 15 16 18
78 7 2 7 10 12 15 16 18
98 14 1 4 5 7 8 9 10 11 12 13 14 16 17 19
95 9 2 3 6 8 9 10 12 14 18
5 11 3 5 6 9 10 11 12 14 16 18 19
10 11 1 2 4 5 8 9 13 16 17 18 20
32 11 1 3 4 5 9 10 11 16 17 18 19
46 8 1 2 3 12 14 16 17 20
76 9 2 4 7 8 11 12 14 17 20
36 13 1 3 4 6 9 10 13 14 16 17 18 19 20
99 13 1 2 3 7 10 11 12 15 16 17 18 19 20
43 7 1 3 4 11 15 17 19
100 14 3 4 5 6 7 8 10 11 13 14 15 16 17 20
69 8 1 6 13 15 16 17 19 20
13 9 1 2 5 6 7 14 15 18 19
61 12 1 3 4 5 6 8 9 10 13 14 19 20
58 10 2 8 9 10 12 14 15 17 18 19
95 13 1 3 4 5 9 11 12 13 14 16 18 19 20
9 11 1 2 3 5 6 7 9 11 12 17 19
96 9 1 4 5 7 9 11 12 16 20
69 9 1 7 10 12 13 15 16 17 18
14 7 1 2 7 14 15 19 20
31 8 6 7 8 9 11 16 18 19
7 11 7 9 10 11 12 13 15 16 17 18 20
63 7 2 4 6 7 15 16 18
43 9 3 6 7 9 12 14 15 16 19
66 10 1 4 5 6 10 12 13 14 18 20
83 9 2 3 4 6 13 15 16 17 20
53 13 1 2 4 7 8 10 12 14 15 17 18 19 20
68 8 1 3 4 11 12 15 16 18
22 10 2 5 7 9 10 11 14 15 19 20
96 12 3 5 6 7 9 10 11 14 16 18 19 20
13 11 1 3 6 7 8 10 11 15 17 19 20
72 10 4 5 7 8 10 11 14 15 18 19
2 6 1 4 6 12 13 16
91 9 3 5 6 7 8 12 13 16 20
32 9 2 4 5 6 8 9 14 15 16
39 10 1 5 6 8 9 10 13 14 15 16
58 10 1 2 3 4 5 6 8 11 12 13
17 13 1 2 3 4 6 7 8 9 12 14 17 18 19
91 16 1 2 3 4 5 6 7 9 11 12 13 14 16 17 19 20
41 9 1 3 5 7 10 14 15 17 18
80 10 5 7 8 9 10 12 13 15 17 20
36 8 2 8 11 14 15 17 18 20
7 7 1 6 7 8 12 14 16
73 10 2 3 8 9 10 11 12 13 14 16
99 9 3 5 7 9 10 11 16 18 20
96 10 2 3 5 6 7 8 9 12 18 19
20 12 1 2 3 5 8 12 13 14 15 16 18 19
55 9 1 4 8 9 12 16 17 19 20
24 10 4 9 10 11 12 13 16 17 18 20
90 11 1 2 3 4 6 8 9 10 13 15 16
61 11 1 5 6 7 8 11 13 14 15 16 18
6 12 1 3 6 9 10 11 13 14 15 17 19 20
27 11 2 4 6 8 9 10 11 13 14 15 19
24 11 3 4 6 10 11 13 15 16 17 18 19
7 9 3 5 7 10 11 13 17 19 20
14 12 1 3 5 6 7 8 10 12 14 17 18 20
71 13 2 3 4 5 6 8 9 10 11 12 15 17 20
39 10 3 4 6 9 11 14 16 18 19 20
95 11 1 2 3 4 5 7 8 10 11 12 17
21 7 1 2 4 14 16 18 20
45 13 1 2 3 4 5 6 7 11 13 14 17 18 19
67 9 1 3 4 8 10 11 15 16 18
35 11 3 6 8 10 11 12 16 17 18 19 20
27 9 2 3 5 8 10 11 13 15 18
95 6 2 9 10 13 17 18
64 10 1 3 4 9 10 12 15 16 18 19
39 10 2 3 5 6 7 11 13 14 17 18
45 17 1 2 3 4 5 6 7 9 10 11 12 13 14 15 16 18 20
91 9 2 5 8 10 13 14 15 18 19
51 9 4 5 7 8 10 14 17 18 20
60 12 1 2 3 4 5 11 13 14 15 16 17 18
24 7 5 7 9 12 14 17 19
48 10 1 2 3 6 7 8 9 12 13 19
86 9 1 2 3 4 5 6 14 17 19
18 10 1 2 3 4 8 10 13 17 18 20
73 13 1 2 3 4 5 8 9 11 12 13 14 18 19
40 9 1 4 5 7 9 13 15 16 18
48 11 1 2 3 5 7 9 10 11 14 15 20
86 12 3 5 6 8 9 10 11 15 16 18 19 20
97 12 1 2 3 6 8 9 11 13 16 17 19 20
86 12 1 6 7 8 10 11 12 13 14 15 17 20
24 8 2 7 9 11 12 13 18 19
21 10 1 3 4 7 8 10 12 13 15 18
45 7 1 2 5 10 17 18 19
69 10 3 5 7 9 10 11 16 18 19 20
36 10 1 2 5 8 9 11 14 15 18 19
16 7 2 5 6 9 13 18 20
26 12 1 4 5 8 10 11 13 14 16 17 18 19
35 13 1 2 3 4 5 7 8 11 13 14 15 16 19
43 6 3 4 9 14 19 20
12 8 2 5 6 9 12 13 15 17
80 10 1 2 3 6 8 10 11 12 13 20
53 11 1 2 3 8 10 11 12 13 14 17 18
45 7 6 8 10 11 12 14 20
96 7 1 3 5 13 15 18 20
19 9 4 10 11 12 14 16 17 18 19
97 10 1 3 5 7 9 13 17 18 19 20
93 14 1 2 3 5 6 7 9 10 12 14 15 17 18 20
16 9 4 5 7 10 11 12 13 14 15
92 9 2 5 8 10 15 17 18 19 20
34 10 1 2 4 6 7 11 12 13 14 20
70 10 2 3 6 8 9 12 13 14 16 19
98 12 2 4 7 8 10 11 12 14 15 16 18 20
54 13 1 3 5 8 9 12 13 14 16 17 18 19 20
48 10 1 3 4 5 6 9 10 11 13 18
26 13 1 2 4 5 6 9 10 11 13 14 15 19 20
11 10 8 9 10 11 14 15 17 18 19 20
63 14 2 3 5 6 8 9 10 12 13 14 15 18 19 20
12 8 2 5 7 9 17 18 19 20
9 13 3 4 8 9 10 11 12 14 15 16 18 19 20
78 3 1 9 14
62 6 2 3 11 13 14 19
26 11 2 4 9 11 12 14 15 16 17 19 20
36 11 1 2 4 7 8 9 10 13 14 15 18
69 11 1 2 3 6 8 9 10 12 14 16 18
96 12 1 2 3 4 10 11 12 15 16 17 19 20
77 7 1 3 4 7 8 14 20
68 10 1 2 3 4 12 14 15 16 19 20
40 9 2 4 6 9 14 15 16 17 20
75 10 1 2 4 5 8 10 12 13 18 19
32 8 2 6 8 12 14 16 17 18
57 11 1 2 8 11 12 14 15 16 17 18 19
2 9 3 5 6 10 12 15 16 17 18
73 13 2 4 5 6 8 9 11 12 13 14 15 17 18
61 10 2 3 6 8 9 10 11 14 16 17
95 11 1 3 6 7 8 14 16 17 18 19 20
85 11 2 3 4 7 8 10 12 13 15 16 18
56 10 4 5 6 10 12 13 15 17 18 19
90 12 2 3 5 7 8 9 10 12 14 17 18 19
8 11 1 5 6 8 10 12 13 14 16 18 20
16 12 1 3 6 8 9 12 13 14 15 16 18 19
94 9 4 5 7 9 11 15 16 18 20
70 10 1 5 6 7 9 10 14 15 16 17
81 12 3 6 7 8 9 11 13 14 15 16 19 20
56 9 4 6 9 12 14 15 16 18 19
56 12 1 3 4 7 9 10 12 13 16 17 19 20
7 9 1 2 4 5 13 14 15 17 18
64 13 1 3 4 5 6 7 8 9 10 12 14 17 18
3 9 1 2 8 9 10 11 13 14 15
77 9 2 4 6 10 12 14 16 18 20
9 9 2 4 5 9 11 13 15 17 18
50 8 1 7 8 10 11 13 14 19
32 12 2 3 4 5 6 11 14 15 17 18 19 20
45 15 1 2 4 5 6 7 8 10 11 14 16 17 18 19 20
39 11 1 6 7 10 11 12 13 15 17 18 20
9 14 1 2 4 6 7 8 9 11 12 13 14 15 16 20
98 9 1 6 11 12 13 15 16 17 18
52 9 3 4 7 8 12 15 16 18 19
50 11 4 6 7 10 11 12 13 14 15 16 20
4 13 2 3 4 5 6 7 9 10 12 13 14 19 20
32 9 4 5 7 9 12 15 16 17 20
32 9 4 5 7 9 10 12 15 16 19
15 7 3 6 7 8 13 15 19
20 10 4 5 6 7 10 12 15 16 19 20
76 12 1 2 4 6 7 10 11 12 13 14 15 20
10 8 2 4 7 8 10 12 15 17
81 9 2 3 4 6 9 11 14 15 17
30 11 2 3 4 6 8 9 12 14 18 19 20
24 9 1 4 5 6 7 9 11 12 17
55 11 1 2 3 5 8 13 14 15 17 18 20
61 10 1 2 3 4 6 8 11 12 14 15
38 6 7 8 11 13 18 19
46 11 1 2 5 6 7 10 14 15 16 19 20
18 10 1 3 4 5 8 12 13 16 18 19
26 10 3 4 5 8 12 13 14 15 18 19
1 7 1 9 11 15 16 19 20
57 13 3 6 8 9 10 11 12 13 14 16 17 18 19
65 5 2 4 6 7 17
98 8 1 5 8 9 11 16 18 20
49 10 1 3 4 5 6 7 9 12 17 18
5 9 2 3 4 7 8 9 11 12 20
51 14 1 4 5 7 8 9 10 12 13 14 15 17 19 20
51 13 1 2 3 4 6 7 10 11 14 15 16 17 19
77 10 2 3 4 5 9 12 13 15 16 20
13 9 1 3 4 13 15 16 17 18 19
55 12 1 2 4 7 8 9 10 13 14 15 16 18
98 9 1 3 6 15 16 17 18 19 20
5 9 3 6 7 8 12 13 14 16 19
82 8 1 3 5 7 11 16 19 20
49 8 4 8 10 12 13 16 17 19
66 15 1 2 3 6 7 8 9 10 11 13 15 16 17 18 19
79 7 2 7 15 16 18 19 20
100 13 2 3 4 5 6 8 9 12 13 15 16 18 19
10 15 2 3 5 6 7 8 9 10 11 12 15 16 17 18 19
30 6 2 3 7 13 19 20
54 4 8 13 17 20
84 6 1 9 10 11 15 20
48 10 2 5 7 9 11 12 13 14 15 20
8 12 1 2 3 4 6 8 9 13 16 18 19 20
74 11 1 3 7 8 9 10 11 13 14 16 17
23 12 1 3 6 7 10 12 13 14 15 17 18 19
6 12 4 5 6 8 11 12 13 14 16 17 19 20
77 14 1 3 4 5 8 9 10 11 12 13 14 15 17 19
54 14 2 3 5 7 8 9 10 11 12 13 15 16 17 19
25 9 1 3 4 5 7 8 12 13 17
31 10 1 3 4 6 9 11 12 14 16 20
67 14 1 2 4 6 8 9 10 11 12 13 14 15 16 19
1 7 2 3 4 10 14 17 20
45 8 1 3 5 9 14 16 17 18
71 9 1 3 5 8 10 11 12 15 20
86 9 2 3 5 6 7 8 15 17 20
17 11 1 2 3 5 7 10 11 13 17 19 20
99 6 2 8 10 16 17 18
56 11 5 6 7 8 9 10 12 14 17 18 20
34 9 3 4 5 6 8 11 13 14 15
58 12 3 5 6 9 11 13 14 15 16 17 18 19
77 11 1 2 3 4 9 12 15 16 17 19 20
79 12 2 4 5 8 9 10 13 16 17 18 19 20
67 15 1 2 4 5 6 7 11 12 14 15 16 17 18 19 20
58 10 2 5 6 7 11 13 17 18 19 20
12 10 2 4 7 10 11 12 13 17 18 19
79 12 1 2 4 5 6 7 8 9 11 14 15 16
15 10 1 2 5 6 11 12 15 16 17 20
20 12 3 4 5 6 7 9 11 13 16 17 18 19
38 10 4 5 11 12 13 14 17 18 19 20
34 7 2 3 8 10 14 16 18
92 7 3 6 7 9 11 12 14
21 10 3 6 9 10 11 12 13 14 16 17
63 12 3 5 6 8 11 12 13 15 17 18 19 20
34 9 3 4 5 6 11 13 15 16 17
98 12 1 3 6 8 9 10 12 13 14 15 16 17
32 6 1 4 5 8 11 12
89 13 2 4 5 6 8 10 11 12 13 14 15 16 18
90 12 1 2 3 4 5 7 8 14 17 18 19 20
74 8 2 7 8 9 12 14 19 20
78 14 1 2 4 5 6 8 9 10 11 12 13 16 19 20
5 12 2 4 5 8 10 12 13 14 15 18 19 20
59 8 1 7 8 9 10 12 13 19
1 11 4 5 6 9 10 11 12 13 14 18 19
55 12 2 4 5 7 8 9 11 12 13 15 16 18
61 9 1 2 3 6 8 10 12 14 15
16 12 1 2 3 4 7 9 11 13 14 17 18 19
48 11 3 5 6 8 10 14 15 17 18 19 20
81 11 3 5 8 9 10 11 13 14 15 17 18
31 11 1 3 8 9 10 11 13 14 15 16 20
56 13 5 6 7 8 9 10 11 12 14 15 17 18 20
47 12 2 3 4 5 6 9 11 12 13 14 15 20
8 6 1 4 9 17 18 19
39 9 5 7 8 9 10 14 15 18 19
1 9 2 3 4 5 8 9 18 19 20
27 11 2 4 7 8 9 10 13 14 17 19 20
36 13 1 5 6 9 10 11 12 13 14 17 18 19 20
58 12 1 2 3 4 5 7 11 12 13 15 17 18
14 6 4 5 6 7 8 9
15 7 1 2 4 14 16 17 18
94 11 1 3 4 7 9 10 11 12 13 16 17
61 6 1 2 5 9 11 13
55 12 2 3 4 5 8 13 14 15 16 17 18 19
19 13 1 2 3 6 8 9 13 14 15 17 18 19 20
58 9 2 4 5 6 9 10 11 15 16
86 11 2 3 4 5 10 11 12 13 16 19 20
30 11 1 3 4 5 10 13 14 15 16 17 20
16 10 1 2 6 7 8 10 12 17 19 20
64 8 1 5 9 12 14 17 18 20
3 11 1 2 4 6 7 8 11 13 14 18 19
18 8 2 3 6 9 15 16 17 20
44 9 1 4 5 8 13 14 17 18 19
20 12 1 3 4 5 10 11 13 14 16 18 19 20
68 10 1 2 4 8 10 13 14 15 18 20
48 8 2 4 7 9 10 11 14 15
70 7 2 7 8 13 15 19 20
96 9 3 7 11 12 13 15 16 17 19
4 11 4 5 7 9 10 11 12 13 15 16 18
74 12 2 3 4 6 7 8 9 10 12 14 16 20
4 11 1 2 4 6 8 9 10 11 13 18 20
49 12 1 2 5 11 12 13 14 15 16 17 18 20
86 12 1 2 5 7 8 10 13 15 16 17 18 19
59 9 3 4 5 6 9 12 13 14 19
60 14 4 5 6 7 8 9 11 12 13 14 15 17 19 20
7 11 2 3 4 6 8 9 10 11 15 18 19
31 7 1 4 5 7 15 17 18
25 13 1 2 4 6 7 9 11 12 13 14 15 18 20
33 15 1 2 3 4 6 7 8 9 11 13 14 17 18 19 20
74 11 1 2 3 4 5 6 7 11 14 17 20
4 8 3 5 7 8 9 12 13 14
98 15 1 2 3 5 6 8 10 11 12 13 14 15 18 19 20
21 8 5 8 11 12 13 15 19 20
51 10 6 9 10 13 14 15 16 17 19 20
32 7 6 7 10 11 12 17 18
81 7 1 9 14 15 16 17 19
4 10 4 6 9 11 13 14 16 18 19 20
1 14 1 3 5 7 9 11 12 13 14 15 16 17 19 20
21 12 4 5 7 8 9 10 11 13 15 16 17 20
34 6 5 6 7 10 11 14
59 8 2 11 12 13 14 17 18 20
4 9 1 3 9 12 13 14 16 18 20
77 12 1 2 5 6 7 8 9 10 12 15 18 19
51 11 1 2 3 4 7 13 14 16 18 19 20
35 9 1 4 5 8 10 11 15 16 19
81 7 3 7 8 12 13 16 19
80 6 4 6 12 13 16 20
33 10 3 4 10 11 13 14 16 17 18 19
75 9 1 2 3 4 5 8 11 12 17
50 11 4 5 6 8 10 12 13 14 15 19 20
43 7 2 6 10 11 16 19 20
50 15 1 2 4 5 6 8 9 10 11 12 13 16 18 19 20
72 10 1 2 3 4 6 8 9 11 15 20
11 13 1 2 4 5 6 9 10 12 14 16 17 18 19
80 11 1 2 3 5 6 8 13 14 15 16 18
84 10 2 4 6 7 9 12 14 16 19 20
71 10 1 3 4 7 10 11 13 14 16 19
41 17 1 2 3 4 5 6 7 10 11 12 13 14 15 16 18 19 20
24 12 2 3 7 9 10 11 12 14 15 17 18 20
51 9 3 4 5 6 11 12 16 18 20
72 13 2 4 5 6 7 10 11 12 13 14 15 17 19
30 11 2 7 9 10 12 14 15 16 18 19 20
19 12 3 5 7 8 10 12 13 14 16 17 18 20
47 10 1 2 8 12 13 15 16 17 18 19
100 13 1 2 4 6 7 8 9 11 13 14 17 19 20
31 9 2 4 5 6 10 11 13 14 20
22 8 2 5 6 8 11 15 18 20
77 14 1 4 6 7 8 10 11 12 13 14 16 17 18 20
25 10 1 2 3 6 8 12 16 18 19 20
45 5 1 5 6 7 12
59 11 1 5 6 7 9 10 11 13 14 16 17
97 8 1 5 7 10 14 15 16 19
72 5 6 7 14 18 19
65 14 2 4 5 6 7 8 13 14 15 16 17 18 19 20
61 8 2 6 7 12 13 15 17 20
99 8 1 6 7 8 11 15 18 19
52 7 1 2 4 9 10 13 14
41 10 1 2 6 8 11 14 15 16 17 19
4 12 1 4 6 7 8 9 13 14 15 16 18 19
52 12 2 3 4 7 9 11 12 15 16 18 19 20
2 15 1 2 5 6 7 8 9 10 12 13 14 15 17 18 19
6 12 1 2 3 4 6 7 10 15 16 17 19 20
81 12 2 4 5 9 10 12 13 15 16 17 18 19
19 9 2 3 5 13 15 16 17 18 20
75 12 2 5 7 8 9 10 13 14 15 16 18 19
50 10 3 5 9 11 13 14 17 18 19 20
14 13 1 5 7 8 9 10 11 14 15 16 17 18 19
21 7 1 2 4 14 17 18 19
26 11 1 2 5 6 7 9 12 14 16 18 19
13 14 1 2 3 5 6 7 8 11 12 14 15 17 19 20
84 12 1 2 4 5 7 10 12 13 14 17 19 20
89 8 1 3 5 9 12 15 16 18
18 8 7 8 9 11 15 16 17 20
9 10 2 4 6 7 8 14 15 16 18 19
51 4 1 3 11 20
25 8 1 2 4 6 8 12 16 18
96 10 1 2 3 4 6 8 9 11 13 19
58 9 4 6 7 8 11 12 16 17 18
12 10 2 5 8 9 12 14 16 18 19 20
91 7 4 5 6 8 11 16 18
67 10 2 3 4 5 6 7 9 10 19 20
11 12 1 2 5 7 9 10 15 16 17 18 19 20
94 9 1 4 9 10 12 15 17 18 20
54 10 3 4 9 11 12 13 15 18 19 20
66 8 2 4 5 8 10 11 16 18
61 5 8 9 12 17 20
43 12 4 5 6 8 10 11 14 16 17 18 19 20
4 12 1 3 4 6 8 11 13 14 15 16 17 18
53 8 3 4 9 14 15 16 18 20
8 6 1 2 5 6 7 14
42 9 1 2 3 9 11 12 14 15 16
11 9 3 6 8 9 11 13 17 19 20
1 10 1 2 7 9 10 12 14 16 17 19
100 7 3 7 8 11 15 17 19
28 8 2 3 4 7 9 10 11 12
72 7 1 4 12 13 14 16 19
88 10 1 5 6 7 10 12 13 17 18 20
15 9 1 2 5 6 8 9 11 16 17
26 8 3 4 10 11 12 14 19 20
42 6 10 11 13 14 15 20
18 12 1 3 4 5 6 7 8 13 16 17 18 19
49 8 2 3 9 13 15 17 18 20
43 9 3 5 7 8 9 11 13 16 19
16 13 1 2 4 5 8 9 10 12 13 14 15 17 20
75 11 2 4 5 8 10 15 16 17 18 19 20
46 10 1 2 5 6 7 10 12 14 18 19
74 15 2 3 4 5 6 7 8 9 10 11 12 13 14 17 20
21 9 2 5 6 8 9 10 14 15 20
12 11 1 2 4 5 7 8 10 14 15 16 17
40 10 1 2 3 5 7 9 10 14 17 18
55 13 2 3 4 5 10 11 12 13 14 15 16 17 18
6 12 1 4 5 7 9 10 11 15 16 17 18 20
30 9 1 3 5 6 7 13 15 16 18
54 13 1 3 5 6 7 8 11 12 13 14 16 17 18
90 11 3 4 5 6 8 11 13 15 18 19 20
67 14 2 3 4 6 7 8 9 11 12 13 15 16 17 18
57 10 4 7 9 11 13 15 16 17 18 19
5 7 1 4 10 15 16 17 20
61 9 1 2 3 4 6 8 9 11 14
99 12 1 2 3 4 6 7 8 10 13 15 16 19
93 13 1 3 4 8 9 10 11 12 13 14 18 19 20
21 7 3 4 10 12 14 18 19
17 11 1 3 5 6 9 11 14 15 16 17 18
81 11 2 3 7 9 13 15 16 17 18 19 20
68 12 1 2 4 5 8 10 11 12 13 16 17 18
53 10 1 3 7 8 9 10 13 16 17 19
40 9 1 3 4 5 6 7 8 17 19
99 5 3 5 6 15 16
2 12 2 4 5 6 7 8 10 15 16 17 19 20
12 8 1 4 6 7 9 13 16 20
17 9 1 2 5 6 12 14 15 17 20
92 10 1 3 4 7 11 12 14 16 18 20
72 12 1 3 4 7 8 9 10 12 13 16 17 19
29 8 1 5 7 8 10 12 19 20
72 9 1 2 3 10 11 14 17 18 20
62 15 1 2 3 4 5 6 8 10 11 12 14 17 18 19 20
46 11 2 3 5 7 10 11 14 16 18 19 20
21 10 2 3 4 7 10 12 13 15 18 20
41 11 1 3 7 8 10 11 12 15 16 19 20
59 11 1 2 4 6 7 11 14 15 16 19 20
54 11 1 5 6 7 8 9 12 16 17 19 20
28 7 4 5 8 10 11 15 20
51 6 1 2 10 11 15 16
12 11 1 3 5 6 7 9 11 14 15 18 20
64 11 1 5 7 9 10 11 13 15 16 18 20
95 10 1 2 3 4 9 11 12 16 17 19
34 10 3 6 9 11 12 14 16 17 19 20
28 6 1 8 10 11 13 16
28 8 1 4 6 12 17 18 19 20
96 10 5 6 7 8 9 12 14 15 19 20
32 13 1 2 4 6 7 8 10 12 13 15 17 18 20
43 15 1 2 3 5 6 7 9 11 12 13 14 15 16 17 18
17 11 2 3 4 5 6 8 11 13 15 17 18
7 11 1 5 6 11 13 14 16 17 18 19 20
16 9 1 2 7 9 13 15 16 17 20
25 9 2 5 6 8 9 10 11 19 20
2 11 1 2 3 4 7 12 15 16 17 19 20
98 12 1 2 3 4 6 7 9 12 13 15 16 19
62 5 9 10 12 14 20
4 12 4 5 6 7 8 9 10 12 14 17 18 20
25 12 1 2 7 8 10 11 14 15 16 18 19 20
9 9 1 3 4 9 10 13 14 18 19
37 6 1 9 14 15 16 20
82 11 1 2 4 5 8 10 11 12 16 17 20
16 14 1 2 3 4 5 6 7 9 10 14 15 16 18 20
11 10 1 4 7 10 13 15 16 17 19 20
17 10 2 3 5 8 9 10 11 13 16 18
6 12 2 5 6 7 8 11 13 14 15 16 17 18
74 8 2 6 7 9 13 14 16 18
82 9 2 4 5 6 7 10 14 15 18
21 8 3 7 8 10 12 14 15 16
92 10 2 3 5 6 10 12 14 17 18 19
70 12 3 4 6 7 8 11 13 14 16 17 18 20
66 11 3 4 8 9 10 12 13 15 18 19 20
28 8 2 3 6 8 9 12 16 20
37 8 1 2 6 10 11 12 15 20
29 11 3 4 5 7 8 10 13 14 15 16 20
26 7 1 3 6 8 13 17 18
85 8 1 6 11 14 15 17 19 20
68 10 1 7 9 10 11 13 14 16 18 20
50 9 2 3 4 9 10 11 13 15 20
77 9 2 5 6 11 12 15 17 19 20
47 7 2 3 6 12 13 14 15
77 13 1 3 5 6 9 12 13 14 15 16 17 19 20
67 7 5 8 9 10 12 17 18
68 10 1 2 4 5 6 8 12 14 15 20
21 10 1 2 3 8 10 12 13 14 15 20
85 8 1 2 3 4 7 9 15 17
92 9 4 12 13 14 15 16 17 18 19
11 9 2 3 4 6 9 10 13 15 17
59 7 7 11 12 13 15 18 19
12 8 3 7 10 14 15 16 17 18
45 8 1 2 4 5 9 10 16 20
19 11 2 4 8 11 12 14 15 16 17 19 20
19 9 2 4 5 7 8 9 14 19 20
35 9 2 6 7 9 11 16 17 19 20
26 10 3 5 6 7 9 15 16 17 18 20
68 9 1 2 3 7 8 9 12 16 17
90 10 1 4 6 9 13 14 16 17 19 20
19 9 2 3 5 8 9 10 13 16 18
15 11 3 5 6 10 11 12 13 16 17 18 19
26 11 4 5 6 7 9 10 12 13 15 17 20
19 10 1 4 5 6 7 10 13 15 18 20
29 12 3 5 7 8 9 10 11 12 16 17 19 20
30 8 1 2 4 12 13 14 15 20
35 9 3 4 5 6 9 10 12 14 19
28 9 1 3 5 11 12 16 17 18 19
41 11 1 2 5 8 9 11 14 16 18 19 20
55 5 2 7 12 18 20
41 8 3 6 7 8 9 14 17 19
97 13 2 3 4 6 7 9 10 13 15 16 17 19 20
36 10 1 3 5 8 9 10 14 16 17 19
84 7 3 8 10 12 13 15 17
49 10 3 4 7 8 10 11 14 15 16 19
66 8 6 8 9 11 13 14 15 20
12 10 1 2 4 5 6 12 13 16 18 20
53 12 3 4 5 6 7 9 11 12 13 16 17 20
65 12 1 2 3 5 6 7 10 12 14 16 17 20
77 10 6 8 9 10 12 15 16 17 18 20
38 11 1 3 4 5 6 7 8 9 11 16 20
76 11 1 2 4 5 8 9 10 12 14 16 19
46 11 2 4 6 7 8 10 13 16 17 18 20
11 9 3 4 6 7 9 14 15 16 19
16 13 3 4 6 7 8 9 14 15 16 17 18 19 20
93 10 5 6 11 12 13 15 16 17 19 20
11 10 2 3 4 5 10 11 12 13 19 20
48 9 1 4 7 8 9 13 15 16 17
38 7 4 7 10 14 16 18 19
100 8 1 3 6 8 10 12 13 17
48 10 1 2 4 6 7 8 13 14 17 20
16 11 2 5 8 9 10 11 12 16 17 19 20
94 8 3 5 9 10 12 15 17 20
80 10 1 2 3 4 5 10 12 13 16 19
30 15 1 4 5 7 8 10 11 12 13 14 16 17 18 19 20
65 6 2 3 10 14 15 20
80 8 1 4 6 9 12 14 15 19
2 7 2 4 6 8 11 18 19
26 7 1 3 4 11 16 19 20
90 11 1 4 6 7 9 10 11 12 16 17 19
59 10 2 4 5 7 9 14 15 16 17 20
34 12 1 2 5 6 7 9 13 14 16 17 18 19
1 8 5 6 8 9 11 14 16 20
90 11 1 3 5 7 9 11 13 16 18 19 20
71 5 2 9 13 17 19
18 9 1 4 5 8 9 11 13 15 19
47 8 2 3 5 7 8 11 13 14
39 7 2 4 11 14 15 17 20
44 9 1 2 3 6 7 11 14 19 20
39 11 2 4 8 9 11 12 13 15 16 19 20
37 10 1 2 4 5 6 13 15 16 18 19
22 10 2 5 6 9 10 12 13 14 15 18
20 8 2 7 10 11 12 15 17 18
97 11 5 6 7 9 10 14 15 16 17 18 20
48 11 2 4 6 9 10 11 14 15 17 18 20
89 11 3 4 5 7 13 14 15 16 17 18 20
60 10 1 4 5 11 12 13 14 15 17 18
88 10 1 2 4 5 10 11 14 16 17 18
36 8 1 2 4 8 13 14 16 20
36 13 3 4 5 6 8 9 10 11 14 15 16 17 18
13 11 1 4 5 8 9 13 14 15 16 18 19
85 7 2 3 6 7 8 9 14
90 9 1 2 3 6 7 12 16 19 20
85 11 1 2 4 8 11 12 13 14 15 16 20
35 5 1 2 4 8 14
68 11 1 2 5 9 12 13 14 15 16 17 20
20 8 2 6 9 12 15 16 17 18
16 10 4 5 6 9 10 11 15 16 17 19
46 9 5 6 7 9 10 11 14 17 18
77 8 3 4 9 10 12 17 18 20
62 9 1 2 4 6 7 9 10 12 20
26 14 2 3 4 6 8 9 10 11 12 13 15 16 19 20
20 13 1 3 4 5 6 8 11 13 15 17 18 19 20
32 7 1 2 3 6 7 10 11
4 10 1 2 3 4 7 9 11 14 15 16
99 8 5 8 9 10 12 13 14 17
99 7 1 2 6 8 9 10 16
40 16 2 3 4 5 6 7 8 9 10 11 12 15 16 17 18 19
5 10 2 3 4 5 6 9 10 11 16 18
4 5 1 2 6 9 13
80 7 5 6 9 11 12 17 18
66 11 1 2 4 6 8 10 12 13 16 19 20
92 8 2 5 6 7 9 10 15 18
8 8 1 2 8 10 16 17 18 19
25 10 1 3 4 5 7 8 10 12 16 20
66 8 1 3 6 7 9 14 16 17
22 10 1 4 6 7 9 14 16 17 18 19
55 16 3 4 5 7 8 9 10 11 12 14 15 16 17 18 19 20
7 11 3 4 5 6 8 9 10 12 15 17 18
51 11 2 3 5 6 7 9 13 16 18 19 20
4 8 2 6 12 15 16 17 18 19
33 9 1 3 8 9 13 14 17 19 20
33 10 1 2 4 6 7 9 10 17 19 20
42 13 1 2 4 5 6 7 9 10 11 12 15 18 20
55 7 2 7 8 9 14 16 18
78 8 2 5 6 10 11 13 14 17
18 9 3 4 5 6 10 12 18 19 20
1 9 1 2 4 5 9 10 11 12 16
90 14 1 2 3 5 6 9 10 12 13 14 15 16 17 20
66 12 1 3 4 7 11 12 13 14 15 16 18 19
48 7 1 3 7 8 14 17 18
23 8 2 7 10 11 12 13 14 19
80 9 1 3 8 9 10 12 13 16 19
18 14 1 2 3 6 7 10 11 12 13 15 16 17 19 20
17 10 1 2 5 7 10 11 12 14 17 18
49 10 2 3 4 8 12 14 15 16 18 20
63 12 2 3 8 9 11 12 13 14 16 17 18 19
30 9 1 4 5 8 10 11 17 18 20
40 10 1 3 5 6 15 16 17 18 19 20
9 13 1 3 5 6 7 8 9 13 16 17 18 19 20
4 15 1 2 3 4 6 7 8 9 11 12 15 17 18 19 20
58 11 1 4 6 7 8 10 11 13 14 18 19
62 14 1 2 5 6 7 8 9 10 11 13 14 16 17 18
53 8 1 3 4 6 7 13 16 18
67 12 1 2 3 4 5 8 12 13 15 16 17 18
22 8 1 10 13 14 16 18 19 20
58 12 2 7 9 10 11 12 14 15 16 17 19 20
97 6 3 8 9 11 16 20
56 12 1 2 4 5 7 12 14 15 16 18 19 20
31 5 1 3 5 12 18
95 12 2 4 6 7 9 10 11 14 15 16 19 20
56 7 2 4 10 12 13 16 20
22 9 1 3 4 7 9 14 15 18 20
13 5 2 16 17 19 20
94 6 2 7 8 10 17 18
28 13 1 2 3 6 8 9 11 13 14 16 18 19 20
33 6 2 4 9 17 18 19
45 10 1 3 5 8 10 11 12 15 17 20
92 11 3 5 7 8 10 11 14 15 16 19 20
99 7 1 12 13 14 15 16 19
53 11 1 4 6 7 10 12 13 14 16 17 18
57 11 1 3 5 7 10 11 12 13 15 16 20
71 10 1 2 6 9 11 13 15 18 19 20
4 9 1 3 8 10 11 12 13 17 19
40 14 1 3 4 6 7 8 10 11 12 13 15 16 18 20
15 6 1 3 7 10 13 16
100 14 2 3 6 7 9 10 12 14 15 16 17 18 19 20
67 12 1 2 4 6 10 11 12 14 17 18 19 20
36 9 4 5 7 8 9 11 12 13 16
22 10 2 4 5 6 8 10 11 12 16 20
44 12 3 6 8 9 10 11 13 16 17 18 19 20
53 9 1 5 6 7 9 10 12 16 17
87 11 1 3 5 9 11 12 13 14 16 18 19
20 9 7 8 10 11 12 14 15 18 20
51 9 2 3 5 8 12 13 16 17 18
11 8 6 8 12 14 15 16 17 18
24 11 1 2 4 6 8 9 10 12 14 16 19
70 10 1 4 7 9 10 14 16 17 18 20
6 8 4 6 11 13 14 16 17 19
44 8 1 2 7 9 10 11 14 18
12 9 1 6 9 10 12 13 17 18 20
32 11 3 6 7 9 10 11 12 13 16 19 20
93 8 3 8 9 11 12 13 16 17
17 11 2 6 7 8 9 10 13 14 16 17 20
100 7 3 10 11 12 17 18 20
72 4 1 11 12 17
40 9 2 3 6 7 8 11 12 15 18
71 9 2 5 7 8 12 13 17 18 19
37 11 1 2 3 5 6 10 14 15 17 18 20
92 12 1 5 6 7 8 9 10 12 14 18 19 20
58 9 6 9 10 11 15 16 17 18 19
34 9 1 3 5 7 8 9 10 16 17
29 8 2 6 8 10 13 14 18 20
78 13 2 4 5 9 10 11 12 13 14 16 18 19 20
11 11 2 3 4 5 7 9 10 12 13 14 19
84 9 1 3 4 6 9 11 13 17 19
77 6 4 5 10 15 18 20
90 10 2 4 5 6 11 12 13 14 15 20
92 12 1 3 4 6 7 9 10 13 16 17 18 19
35 11 1 4 5 6 9 10 13 17 18 19 20
12 11 2 6 8 9 10 11 12 13 14 17 19
5 8 2 3 4 8 10 11 13 18
27 9 2 3 4 5 7 10 16 19 20
92 9 1 4 6 12 15 17 18 19 20
91 9 2 3 5 9 10 11 14 15 20
23 14 1 3 4 5 7 9 11 12 13 15 16 17 18 20
65 6 5 6 7 10 12 20
91 9 2 5 7 8 10 11 14 16 17
85 11 2 4 5 7 8 9 12 14 15 17 18
14 9 1 2 3 7 12 13 15 18 19
42 13 1 2 3 5 6 7 8 9 10 13 15 16 17
28 8 1 3 10 12 16 17 18 20
80 8 1 2 7 8 14 16 18 19
85 10 1 2 6 7 14 15 16 17 18 20
38 6 7 8 9 12 15 20
71 13 2 4 5 6 7 8 9 10 11 13 15 17 18
62 5 3 5 8 12 19
82 13 1 2 4 7 8 11 13 14 15 16 17 18 20
66 11 1 3 4 6 7 9 10 13 17 18 19
3 10 1 2 4 5 9 11 12 16 17 18
33 10 2 5 7 8 9 10 11 16 18 19
33 11 2 3 6 8 9 10 11 12 15 17 19
55 10 1 4 7 10 11 12 13 14 15 17
60 6 6 8 10 12 16 18
48 9 1 3 8 11 12 13 16 17 18
78 9 4 5 6 7 12 13 16 17 19
63 12 2 4 5 6 9 10 11 13 14 16 17 18
11 8 2 5 6 9 12 17 19 20
20 10 2 3 5 6 8 10 12 16 19 20
51 9 2 5 6 7 9 10 14 15 17
78 10 3 8 9 10 11 12 14 16 17 18
42 10 2 3 5 8 12 14 15 17 18 20
37 9 4 6 7 11 12 13 15 16 18
21 12 2 3 4 7 10 12 13 14 15 16 18 20
100 7 4 7 12 13 15 18 20
13 10 1 3 4 5 6 10 13 18 19 20
60 13 3 4 5 6 7 8 9 14 15 16 18 19 20
57 14 1 2 3 5 6 7 10 12 13 14 15 18 19 20
91 9 2 8 9 11 12 16 17 18 19
53 10 1 2 3 8 10 13 14 15 17 18
49 6 3 6 8 10 11 19
15 9 2 3 5 6 7 8 9 13 14
45 11 3 4 5 8 9 10 14 15 17 18 19
19 10 1 5 8 9 10 12 14 15 17 18
51 8 4 5 7 8 14 16 18 20
2 6 1 6 15 16 19 20
96 8 9 12 13 14 15 16 17 20
22 12 1 3 4 6 7 8 10 11 13 16 19 20
32 9 1 4 8 9 11 12 14 16 17
2 10 1 2 3 5 8 10 12 15 17 19
46 10 1 2 3 7 8 11 13 15 16 17
62 13 2 5 6 7 8 9 10 11 14 15 16 18 19
58 12 1 2 5 10 11 13 14 16 17 18 19 20
11 10 2 3 8 10 11 13 15 16 18 20
29 12 2 4 8 9 11 13 14 15 17 18 19 20
6 11 3 4 5 6 7 11 14 15 16 18 20
74 14 2 3 5 6 7 8 9 10 11 13 15 16 18 19
38 7 2 12 13 14 15 19 20
70 11 2 6 7 8 9 10 11 12 13 16 20
97 13 1 2 3 6 7 8 9 10 13 15 17 18 19
4 12 2 3 4 6 7 8 12 13 14 16 17 20
22 16 1 3 4 5 6 7 8 9 10 11 12 13 14 17 19 20
76 13 1 2 4 6 9 10 11 12 13 15 16 17 18
19 9 1 2 5 6 9 13 14 17 18
1 7 2 5 6 14 15 16 17
90 6 1 7 9 10 14 16
63 10 3 5 6 9 10 11 14 15 18 19
55 11 1 2 3 4 6 8 9 14 15 18 19
64 11 1 5 8 9 11 12 14 15 18 19 20
44 8 2 3 4 7 11 13 16 20
90 9 1 3 5 8 9 10 12 16 17
51 6 1 5 9 12 16 19
36 11 2 5 6 7 9 10 12 13 15 16 19
16 9 2 3 4 5 10 14 15 19 20
65 9 3 4 6 7 10 12 17 18 20
95 11 1 2 6 8 10 11 12 13 16 18 20
64 9 4 5 8 11 12 13 14 15 16
59 8 3 5 7 10 12 13 15 16
53 10 1 4 5 6 10 11 12 13 14 16
93 13 1 2 3 6 7 8 9 10 11 12 13 15 16
17 9 1 5 6 9 11 14 18 19 20
15 12 2 5 7 9 12 13 14 15 16 17 19 20
21 8 4 9 10 16 17 18 19 20
61 7 7 8 11 13 14 15 20
51 9 2 5 10 11 12 14 15 16 17
69 11 3 4 5 9 10 11 12 13 16 18 19
42 10 4 5 7 8 9 10 11 12 13 19
48 11 1 2 4 6 7 10 13 14 15 16 19
97 10 1 3 4 5 6 8 10 11 12 20
88 10 1 2 4 8 9 11 16 17 19 20
2 8 6 7 8 10 11 12 15 17
35 12 2 3 5 6 7 9 10 11 12 17 19 20
29 9 2 3 5 9 10 12 14 17 20
72 14 1 2 3 4 5 6 8 9 11 15 16 18 19 20
49 11 1 2 5 9 10 11 12 14 15 19 20
76 13 2 3 4 5 6 7 8 9 12 15 16 17 18
54 11 4 5 6 9 10 11 13 14 16 18 19
72 13 3 4 6 7 8 9 10 11 12 13 15 17 20
30 10 2 3 5 10 12 15 16 17 18 20
94 9 1 2 3 6 7 8 9 13 17
20 9 3 6 8 10 12 13 14 18 19
72 11 1 3 6 7 8 10 11 12 13 14 20
21 14 1 2 3 4 5 6 8 9 10 12 15 16 17 20
65 11 2 4 6 7 8 9 10 11 12 15 19
80 10 2 3 7 8 9 12 13 15 17 18
31 13 1 2 4 8 9 10 12 14 16 17 18 19 20
11 13 1 4 5 6 8 9 10 13 14 16 18 19 20
81 12 2 5 6 7 9 10 12 14 15 16 17 18
14 15 2 3 4 6 7 8 9 11 12 13 16 17 18 19 20
43 9 5 7 8 9 10 11 13 18 20
39 11 1 2 3 5 11 12 13 16 18 19 20
83 12 2 4 5 6 9 11 12 14 15 16 18 19
45 13 2 3 4 5 6 7 8 9 11 13 14 15 17
29 10 1 2 3 4 9 11 14 15 17 20
94 7 1 2 4 13 15 16 18
76 6 2 10 13 15 16 20
81 9 1 5 8 9 10 13 15 17 18
1 10 1 5 6 8 9 12 13 15 17 18
97 10 1 2 4 5 6 9 11 15 16 17
48 5 6 8 9 13 20
71 13 1 2 5 6 8 9 10 11 12 13 14 16 17
88 12 2 3 5 6 8 9 10 11 12 16 17 18
44 9 3 4 8 10 11 13 18 19 20
34 10 5 8 11 12 13 14 15 16 17 18
53 8 2 3 4 10 12 14 16 18
62 10 2 3 4 5 8 11 14 15 16 19
25 12 3 4 6 7 8 11 12 13 14 18 19 20
1 14 1 2 3 4 5 7 8 9 10 11 12 14 18 19
81 16 1 2 4 6 7 8 9 10 11 12 13 14 16 17 19 20
79 11 1 3 4 5 7 9 14 15 16 19 20
58 9 1 3 6 10 12 17 18 19 20
24 10 1 3 5 6 8 9 10 12 14 18
99 12 1 2 4 5 7 9 10 11 17 18 19 20
15 6 1 3 7 10 16 17
46 7 1 2 3 5 6 7 12
63 12 2 3 5 6 7 11 14 15 16 17 18 19
10 6 3 8 10 15 18 20
11 11 3 5 6 10 11 12 14 15 16 17 20
50 7 8 9 10 12 15 16 19
19 9 1 3 4 5 7 9 14 18 19
91 13 2 3 5 6 7 9 10 13 15 16 17 18 19
56 11 3 4 5 6 8 9 10 13 14 18 20
44 13 1 2 3 6 7 9 11 12 15 16 17 19 20
56 12 1 2 4 5 7 8 10 13 15 16 17 19
86 7 2 3 5 7 9 12 14
35 12 3 4 6 7 8 9 10 11 13 15 18 19
76 9 2 5 7 10 13 15 16 19 20
22 10 3 5 6 7 9 10 16 18 19 20
52 9 4 5 6 11 14 15 16 18 20
27 16 1 2 3 4 6 8 9 10 11 12 13 15 16 18 19 20
52 9 6 9 10 12 13 14 15 19 20
60 11 1 2 4 5 6 8 9 10 12 13 18
84 11 2 3 4 6 11 12 13 14 16 17 19
15 8 2 6 9 10 12 15 17 20
38 6 1 4 6 9 11 13
80 12 1 4 7 9 10 11 12 13 14 15 17 19
99 10 1 5 8 10 11 12 13 14 15 16
1 12 3 4 5 6 7 12 14 15 16 17 18 20
38 13 1 3 7 8 9 11 13 14 15 16 18 19 20
86 10 1 6 8 10 11 13 14 15 19 20
79 11 3 4 7 8 9 10 12 13 15 18 19
85 11 3 5 6 8 10 12 13 14 17 19 20
43 10 2 5 6 8 10 12 14 16 18 19
16 6 1 2 12 14 15 20
61 12 2 4 5 6 7 9 10 14 16 17 18 20
68 9 1 2 3 7 9 10 11 16 19
41 13 1 3 4 5 6 7 10 12 13 14 17 19 20
8 9 2 9 10 11 14 16 18 19 20
67 13 2 3 4 7 8 9 10 13 14 16 18 19 20
29 8 2 3 4 9 13 18 19 20
63 13 2 4 6 8 9 10 11 12 13 16 17 18 19
64 7 2 3 4 5 8 10 14
70 11 1 2 4 6 8 10 11 12 13 17 18
91 16 1 2 4 5 6 7 8 9 12 13 15 16 17 18 19 20
24 9 1 5 9 10 12 13 15 17 20
79 12 2 4 6 7 9 11 12 13 14 16 18 19
14 8 2 4 7 8 11 12 15 16
62 8 1 6 8 10 13 14 17 19
11 15 1 2 3 5 6 8 9 10 12 13 14 15 17 19 20
41 12 1 3 4 5 6 7 8 11 12 14 19 20
79 10 2 5 6 7 11 12 13 14 16 20
1 7 2 3 4 9 10 13 18
95 10 1 3 6 7 8 9 10 11 13 18
8 5 5 6 7 14 16
57 8 2 7 9 11 12 14 17 19
52 11 1 2 3 4 5 11 12 14 17 18 20
87 10 1 2 7 8 9 11 13 14 16 19
32 9 3 4 6 8 10 13 14 17 20
45 10 1 5 7 9 10 11 13 14 15 17
40 10 1 2 5 8 10 11 12 13 17 20
77 9 4 10 13 15 16 17 18 19 20
85 8 1 2 5 7 11 12 15 19
53 10 2 7 9 10 13 14 15 17 18 20
9 11 1 4 5 6 7 8 9 10 13 15 18
15 14 1 2 3 4 6 8 9 11 12 13 15 17 18 20
55 9 1 6 9 12 13 14 15 19 20
20 8 1 6 7 8 9 12 15 19
29 10 2 5 6 9 10 11 12 14 17 20
72 11 1 3 6 7 9 10 14 15 16 17 19
71 10 3 4 6 7 9 11 12 14 17 19
64 9 6 8 9 10 11 12 13 17 18
48 11 1 2 4 5 7 8 11 13 17 19 20
25 10 2 4 6 8 9 10 12 16 17 20
44 11 1 3 7 8 11 12 13 14 15 16 20
55 10 1 3 6 9 10 11 12 13 15 16
9 11 1 2 5 6 7 8 10 11 12 15 16
82 6 2 6 7 10 11 17
53 11 1 2 4 6 7 8 9 11 15 16 19
89 13 1 2 3 4 8 9 10 11 12 13 16 18 20
64 11 4 6 7 9 11 13 14 15 17 18 20
60 11 2 4 5 6 7 9 15 16 17 19 20
20 9 1 2 3 5 12 14 15 17 20
80 10 3 4 5 7 9 10 14 16 18 19
57 11 5 6 7 10 12 13 14 15 17 19 20
62 7 2 3 6 8 9 19 20
88 10 2 6 7 8 9 11 13 16 17 18
54 9 1 3 4 5 8 12 13 14 16
100 13 1 3 5 6 7 9 11 12 14 16 17 19 20
89 8 2 8 10 11 12 16 17 19
45 10 2 3 5 9 10 12 13 16 18 19
81 13 1 2 6 8 9 13 14 15 16 17 18 19 20
67 12 3 4 6 7 8 9 11 12 14 15 16 18
84 9 3 4 5 6 7 9 13 14 20
75 9 1 2 4 5 8 10 13 18 19
37 10 1 3 5 6 9 10 11 13 16 18
10 13 1 2 3 4 7 10 11 13 14 16 17 18 19
68 6 4 5 11 12 13 18
35 9 4 5 8 11 12 14 17 19 20
40 12 1 2 4 5 6 9 10 12 13 14 15 17
85 6 8 14 17 18 19 20
52 6 7 12 13 14 15 18
50 11 1 5 6 8 9 10 14 16 17 18 19
67 9 3 5 6 8 15 16 17 18 19
68 13 1 2 6 7 8 10 11 12 13 15 16 17 19
11 11 2 3 4 5 8 11 12 14 15 17 20
90 11 1 2 3 4 5 8 9 13 14 15 18
28 10 2 4 5 12 13 14 15 16 18 19
74 11 1 3 8 9 11 14 15 16 17 18 20
82 9 4 6 7 10 13 15 17 18 20
96 9 1 2 4 5 8 11 13 17 20
37 10 2 3 6 10 13 15 17 18 19 20
75 9 1 3 6 7 8 11 14 16 19
36 12 1 2 3 4 5 9 10 11 12 13 14 18
32 13 2 3 4 6 7 8 10 11 13 14 15 16 17
73 12 1 3 4 8 9 10 11 12 13 15 16 17
29 10 5 6 9 10 11 12 14 16 17 18
99 7 3 6 7 9 10 11 13
71 10 4 6 7 9 10 11 12 15 17 20
88 7 5 8 11 17 18 19 20
98 11 1 2 4 5 8 9 11 12 13 17 19
90 11 1 2 4 7 8 10 12 14 15 16 18
47 11 5 9 10 11 13 15 16 17 18 19 20
91 10 3 5 6 9 10 12 15 18 19 20
12 9 1 4 5 10 11 12 13 19 20
13 13 1 3 4 5 7 9 10 12 13 15 16 18 20
64 12 1 2 4 5 6 8 9 10 14 16 17 18
13 6 2 4 7 10 12 14
82 10 1 3 4 6 7 9 13 15 16 18
52 8 1 4 5 6 8 11 12 16
31 16 1 2 3 4 7 8 9 10 11 13 14 15 16 17 18 19
